Maximize
 obj: + x0 + x1 + x2 + x3 + x4 + x5 + x6 + x7 + x8 + x9 + x10 + x11 + x12 + x13 + x14 + x15 + x16 + x17 + x18 + x19 + x20 + x21 + x22 + x23 + x24 + x25 + x26 + x27 + x28 + x29 + x30 + x31 + x32 + x33 + x34 + x35 + x36 + x37 + x38 + x39 + x40 + x41 + x42 + x43 + x44 + x45 + x46 + x47 + x48 + x49 + x50 + x51 + x52 + x53 + x54 + x55 + x56 + x57 + x58 + x59 + x60 + x61 + x62 + x63 + x64 + x65 + x66 + x67 + x68 + x69 + x70 + x71 + x72 + x73 + x74 + x75 + x76 + x77 + x78 + x79 + x80 + x81 + x82 + x83 + x84 + x85 + x86 + x87 + x88 + x89 + x90 + x91 + x92 + x93 + x94 + x95 + x96 + x97 + x98 + x99 + x100 + x101 + x102 + x103 + x104 + x105 + x106 + x107 + x108 + x109 + x110 + x111 + x112 + x113 + x114 + x115 + x116 + x117 + x118 + x119 + x120 + x121 + x122 + x123 + x124
Subject To
c0:  + x0 + x1 + x2 + x3 + x4 + x5 + x10 + x15 + x20 + x25 + x50 + x75 + x100 <= 1
c1:  + x5 + x6 + x7 + x8 + x9 + x30 + x55 + x80 + x105 <= 1
c2:  + x10 + x11 + x12 + x13 + x14 + x35 + x60 + x85 + x110 <= 1
c3:  + x19 + x44 + x69 + x94 + x104 + x109 + x114 + x115 + x116 + x117 + x118 + x119 <= 1
c4:  + x1 + x6 + x11 + x16 + x21 + x26 + x51 + x76 + x101 <= 1
c5:  + x2 + x7 + x12 + x17 + x22 + x27 + x52 + x77 + x102 <= 1
c6:  + x23 + x48 + x73 + x98 + x103 + x108 + x113 + x118 + x120 + x121 + x122 + x123 <= 1
c7:  + x24 + x49 + x74 + x79 + x84 + x89 + x94 + x95 + x96 + x97 + x98 + x99 <= 1
c8:  + x25 + x26 + x27 + x28 + x29 + x30 + x35 + x40 + x45 <= 1
c9:  + x50 + x51 + x52 + x53 + x54 + x55 + x60 + x65 + x70 <= 1
c10:  + x18 + x43 + x68 + x78 + x83 + x88 + x90 + x91 + x92 + x93 <= 1
c11:  + x31 + x32 + x33 + x34 + x36 + x41 + x46 + x56 + x81 + x106 <= 1
c12:  + x14 + x36 + x37 + x38 + x39 + x61 + x86 + x111 <= 1
c13:  + x22 + x32 + x37 + x42 + x47 + x57 + x82 + x107 <= 1
c14:  + x54 + x56 + x57 + x58 + x59 + x61 + x66 + x71 <= 1
c15:  + x4 + x9 + x14 + x18 + x19 + x21 + x22 + x23 <= 1
c16:  + x4 + x29 + x54 + x79 + x101 + x102 + x103 + x104 <= 1
c17:  + x20 + x45 + x70 + x90 + x95 + x105 + x110 + x115 <= 1
c18:  + x59 + x62 + x63 + x64 + x67 + x70 + x72 <= 1
c19:  + x62 + x87 + x102 + x107 + x110 + x111 + x112 <= 1
c20:  + x24 + x29 + x34 + x39 + x44 + x47 + x48 <= 1
c21:  + x21 + x46 + x71 + x91 + x96 + x111 + x116 <= 1
c22:  + x3 + x8 + x13 + x23 + x28 + x53 + x78 <= 1
c23:  + x9 + x59 + x83 + x84 + x106 + x107 + x108 <= 1
c24:  + x22 + x24 + x45 + x46 + x120 <= 1
c25:  + x15 + x16 + x17 + x18 + x40 + x65 + x115 <= 1
c26:  + x75 + x76 + x77 + x78 + x79 + x80 + x85 <= 1
c27:  + x100 + x101 + x105 + x120 <= 1
c28:  + x33 + x38 + x43 + x48 + x53 + x58 <= 1
c29:  + x19 + x39 + x40 + x41 + x42 + x43 <= 1
c30:  + x16 + x41 + x66 + x86 + x91 <= 1
c31:  + x81 + x82 + x83 + x85 + x86 + x95 <= 1
c32:  + x13 + x38 + x63 + x88 + x103 + x112 <= 1
c33:  + x39 + x64 + x88 + x89 + x110 + x113 <= 1
c34:  + x17 + x42 + x67 + x92 + x112 + x116 <= 1
c35:  + x47 + x72 + x92 + x97 + x102 + x117 <= 1
c36:  + x67 + x77 + x82 + x87 + x90 <= 1
c37:  + x29 + x52 + x76 + x100 <= 1
c38:  + x34 + x58 + x82 + x105 <= 1
c39:  + x43 + x44 + x65 + x66 + x67 <= 1
c40:  + x24 + x69 + x71 + x72 + x73 <= 1
c41:  + x71 + x101 + x106 + x121 <= 1
c42:  + x79 + x86 + x87 + x88 <= 1
c43:  + x40 + x60 + x80 + x100 <= 1
c44:  + x49 + x104 + x120 + x124 <= 1
c45:  + x8 + x12 + x16 + x20 <= 1
c46:  + x34 + x38 + x42 + x45 <= 1
c47:  + x23 + x58 + x63 + x68 <= 1
c48:  + x14 + x24 + x54 + x64 <= 1
c49:  + x14 + x89 + x109 + x112 <= 1
c50:  + x28 + x38 + x46 + x47 <= 1
c51:  + x8 + x18 + x33 + x103 <= 1
c52:  + x13 + x17 + x37 + x62 <= 1
c53:  + x7 + x57 + x81 <= 1
c54:  + x66 + x106 + x111 + x115 <= 1
c55:  + x9 + x11 + x15 <= 1
c56:  + x12 + x21 + x61 <= 1
c57:  + x23 + x47 + x70 + x71 <= 1
c58:  + x39 + x63 + x85 + x87 <= 1
c59:  + x28 + x100 + x103 <= 1
c60:  + x77 + x81 + x91 + x101 <= 1
c61:  + x14 + x34 + x59 + x104 <= 1
c62:  + x33 + x35 + x105 <= 1
c63:  + x70 + x74 + x120 <= 1
c64:  + x7 + x20 + x21 <= 1
c65:  + x23 + x33 + x45 <= 1
c66:  + x39 + x49 + x59 + x109 <= 1
c67:  + x19 + x64 + x84 <= 1
c68:  + x61 + x62 + x65 + x85 <= 1
c69:  + x19 + x54 + x67 + x68 <= 1
c70:  + x17 + x19 + x66 + x90 <= 1
c71:  + x22 + x72 + x112 + x121 <= 1
c72:  + x9 + x13 + x16 <= 1
c73:  + x27 + x31 + x51 <= 1
c74:  + x18 + x53 + x63 + x66 <= 1
c75:  + x3 + x27 + x76 <= 1
c76:  + x78 + x86 + x96 + x101 <= 1
c77:  + x20 + x65 + x80 <= 1
c78:  + x23 + x93 + x95 <= 1
c79:  + x45 + x55 + x100 <= 1
c80:  + x57 + x102 + x105 + x106 <= 1
c81:  + x17 + x107 + x117 <= 1
c82:  + x13 + x18 + x58 + x108 <= 1
c83:  + x106 + x109 + x110 + x120 <= 1
c84:  + x29 + x37 + x46 <= 1
c85:  + x27 + x41 + x101 <= 1
c86:  + x64 + x65 + x68 + x69 <= 1
c87:  + x22 + x87 + x92 + x95 <= 1
c88:  + x64 + x104 + x111 <= 1
c89:  + x9 + x17 + x20 <= 1
c90:  + x8 + x17 + x21 <= 1
c91:  + x4 + x28 + x52 <= 1
c92:  + x7 + x11 + x31 <= 1
c93:  + x46 + x48 + x49 + x70 <= 1
c94:  + x61 + x76 + x81 <= 1
c95:  + x53 + x57 + x62 + x77 <= 1
c96:  + x34 + x35 + x80 <= 1
c97:  + x9 + x79 + x82 <= 1
c98:  + x80 + x81 + x84 + x90 <= 1
c99:  + x44 + x79 + x93 <= 1
c100:  + x54 + x78 + x100 <= 1
c101:  + x8 + x58 + x107 <= 1
c102:  + x24 + x109 + x121 + x124 <= 1
c103:  + x9 + x29 + x31 <= 1
c104:  + x28 + x32 + x77 <= 1
c105:  + x28 + x36 + x51 <= 1
c106:  + x21 + x41 + x45 <= 1
c107:  + x18 + x28 + x42 <= 1
c108:  + x53 + x56 + x76 <= 1
c109:  + x23 + x72 + x96 <= 1
c110:  + x29 + x51 + x75 <= 1
c111:  + x58 + x73 + x83 <= 1
c112:  + x24 + x104 + x122 <= 1
c113:  + x31 + x40 + x105 <= 1
c114:  + x34 + x43 + x108 <= 1
c115:  + x47 + x112 + x120 <= 1
c116:  + x9 + x33 + x57 <= 1
c117:  + x33 + x37 + x40 <= 1
c118:  + x36 + x45 + x60 <= 1
c119:  + x62 + x71 + x86 <= 1
c120:  + x7 + x82 + x106 <= 1
c121:  + x13 + x83 + x87 <= 1
c122:  + x93 + x103 + x115 <= 1
c123:  + x65 + x90 + x100 <= 1
c124:  + x72 + x107 + x120 <= 1
c125:  + x74 + x114 + x122 + x124 <= 1
c126:  + x3 + x7 + x16 <= 1
c127:  + x4 + x8 + x11 <= 1
c128:  + x15 + x85 + x90 <= 1
c129:  + x19 + x20 + x24 <= 1
c130:  + x32 + x35 + x55 <= 1
c131:  + x18 + x38 + x41 <= 1
c132:  + x42 + x44 + x46 <= 1
c133:  + x34 + x49 + x54 <= 1
c134:  + x21 + x56 + x70 <= 1
c135:  + x61 + x63 + x110 <= 1
c136:  + x53 + x68 + x71 <= 1
c137:  + x40 + x55 + x75 <= 1
c138:  + x48 + x78 + x97 <= 1
c139:  + x44 + x84 + x91 <= 1
c140:  + x48 + x71 + x95 <= 1
c141:  + x47 + x77 + x96 <= 1
c142:  + x84 + x104 + x105 <= 1
c143:  + x68 + x108 + x115 <= 1
c144:  + x13 + x111 + x113 <= 1
c145:  + x43 + x103 + x116 <= 1
c146:  + x47 + x49 + x121 <= 1
c147:  + x12 + x37 + x87 <= 1
c148:  + x3 + x52 + x101 <= 1
c149:  + x19 + x59 + x79 <= 1
c150:  + x38 + x60 + x62 <= 1
c151:  + x44 + x49 + x64 <= 1
c152:  + x54 + x73 + x74 <= 1
c153:  + x46 + x66 + x76 <= 1
c154:  + x33 + x78 + x82 <= 1
c155:  + x69 + x84 + x93 <= 1
c156:  + x53 + x100 + x102 <= 1
c157:  + x34 + x107 + x109 <= 1
c158:  + x4 + x6 <= 1
c159:  + x15 + x60 + x105 <= 1
c160:  + x13 + x20 + x22 <= 1
c161:  + x29 + x33 + x42 <= 1
c162:  + x9 + x12 + x32 <= 1
c163:  + x36 + x40 + x85 <= 1
c164:  + x28 + x37 + x41 <= 1
c165:  + x31 + x45 + x80 <= 1
c166:  + x56 + x65 + x105 <= 1
c167:  + x14 + x63 + x113 <= 1
c168:  + x47 + x52 + x67 <= 1
c169:  + x54 + x72 + x77 <= 1
c170:  + x45 + x65 + x75 <= 1
c171:  + x9 + x58 + x81 <= 1
c172:  + x23 + x38 + x83 <= 1
c173:  + x13 + x21 + x86 <= 1
c174:  + x67 + x69 + x91 <= 1
c175:  + x73 + x78 + x95 <= 1
c176:  + x48 + x83 + x96 <= 1
c177:  + x22 + x97 + x122 <= 1
c178:  + x39 + x104 + x112 <= 1
c179:  + x63 + x108 + x111 <= 1
c180:  + x99 + x114 + x120 <= 1
c181:  + x18 + x113 + x116 <= 1
c182:  + x43 + x113 + x117 <= 1
c183:  + x74 + x104 + x121 <= 1
c184:  + x4 + x7 <= 1
c185:  + x16 + x61 + x106 <= 1
c186:  + x44 + x59 + x68 <= 1
c187:  + x64 + x71 + x74 <= 1
c188:  + x66 + x68 + x70 <= 1
c189:  + x41 + x76 + x90 <= 1
c190:  + x82 + x84 + x92 <= 1
c191:  + x17 + x87 + x91 <= 1
c192:  + x19 + x89 + x91 <= 1
c193:  + x73 + x93 + x96 <= 1
c194:  + x70 + x85 + x100 <= 1
c195:  + x46 + x61 + x101 <= 1
c196:  + x42 + x102 + x115 <= 1
c197:  + x67 + x107 + x115 <= 1
c198:  + x38 + x40 + x110 <= 1
c199:  + x3 + x6 <= 1
c200:  + x4 + x12 <= 1
c201:  + x8 + x10 <= 1
c202:  + x6 + x15 <= 1
c203:  + x6 + x20 <= 1
c204:  + x29 + x38 + x78 <= 1
c205:  + x7 + x32 <= 1
c206:  + x36 + x101 + x110 <= 1
c207:  + x6 + x56 <= 1
c208:  + x34 + x55 + x57 <= 1
c209:  + x48 + x68 + x72 <= 1
c210:  + x26 + x75 <= 1
c211:  + x57 + x70 + x80 <= 1
c212:  + x21 + x66 + x81 <= 1
c213:  + x11 + x86 + x106 <= 1
c214:  + x14 + x84 + x88 <= 1
c215:  + x21 + x95 + x120 <= 1
c216:  + x23 + x88 + x97 <= 1
c217:  + x58 + x78 + x103 <= 1
c218:  + x93 + x108 + x116 <= 1
c219:  + x89 + x111 + x114 <= 1
c220:  + x18 + x67 + x117 <= 1
c221:  + x97 + x107 + x121 <= 1
c222:  + x3 + x11 <= 1
c223:  + x4 + x13 <= 1
c224:  + x8 + x15 <= 1
c225:  + x2 + x16 <= 1
c226:  + x11 + x20 <= 1
c227:  + x28 + x31 + x76 <= 1
c228:  + x8 + x32 <= 1
c229:  + x37 + x45 + x85 <= 1
c230:  + x42 + x52 + x62 + x66 <= 1
c231:  + x7 + x56 <= 1
c232:  + x59 + x69 + x74 <= 1
c233:  + x60 + x61 + x64 <= 1
c234:  + x27 + x75 <= 1
c235:  + x69 + x79 + x90 <= 1
c236:  + x12 + x62 + x82 <= 1
c237:  + x14 + x87 <= 1
c238:  + x77 + x95 + x100 <= 1
c239:  + x102 + x116 + x120 <= 1
c240:  + x99 + x109 + x122 <= 1
c241:  + x3 + x12 <= 1
c242:  + x4 + x16 <= 1
c243:  + x7 + x15 <= 1
c244:  + x14 + x20 <= 1
c245:  + x14 + x29 <= 1
c246:  + x10 + x30 <= 1
c247:  + x17 + x32 <= 1
c248:  + x15 + x35 <= 1
c249:  + x11 + x36 <= 1
c250:  + x41 + x51 + x61 <= 1
c251:  + x49 + x119 + x122 <= 1
c252:  + x8 + x56 <= 1
c253:  + x43 + x63 <= 1
c254:  + x52 + x57 + x72 <= 1
c255:  + x28 + x75 <= 1
c256:  + x33 + x80 + x83 <= 1
c257:  + x59 + x81 + x105 <= 1
c258:  + x86 + x89 + x90 <= 1
c259:  + x38 + x87 <= 1
c260:  + x44 + x89 + x92 <= 1
c261:  + x22 + x96 <= 1
c262:  + x83 + x103 + x105 <= 1
c263:  + x100 + x104 + x110 <= 1
c264:  + x105 + x108 + x109 <= 1
c265:  + x11 + x111 <= 1
c266:  + x112 + x113 + x114 <= 1
c267:  + x108 + x112 + x117 <= 1
c268:  + x99 + x119 + x121 <= 1
c269:  + x3 + x17 <= 1
c270:  + x4 + x17 <= 1
c271:  + x14 + x16 <= 1
c272:  + x18 + x20 <= 1
c273:  + x24 + x114 + x123 <= 1
c274:  + x2 + x26 <= 1
c275:  + x4 + x27 <= 1
c276:  + x19 + x29 <= 1
c277:  + x15 + x30 <= 1
c278:  + x6 + x31 <= 1
c279:  + x27 + x32 <= 1
c280:  + x20 + x35 <= 1
c281:  + x12 + x36 <= 1
c282:  + x27 + x37 <= 1
c283:  + x39 + x54 + x62 <= 1
c284:  + x23 + x43 + x46 <= 1
c285:  + x4 + x53 <= 1
c286:  + x9 + x56 <= 1
c287:  + x55 + x58 <= 1
c288:  + x20 + x60 <= 1
c289:  + x48 + x63 <= 1
c290:  + x64 + x66 <= 1
c291:  + x22 + x67 + x71 <= 1
c292:  + x49 + x73 <= 1
c293:  + x30 + x75 <= 1
c294:  + x76 + x91 + x95 <= 1
c295:  + x34 + x79 + x83 <= 1
c296:  + x59 + x80 + x82 <= 1
c297:  + x42 + x87 <= 1
c298:  + x19 + x93 <= 1
c299:  + x76 + x96 <= 1
c300:  + x66 + x101 + x116 <= 1
c301:  + x3 + x102 <= 1
c302:  + x6 + x106 <= 1
c303:  + x7 + x107 <= 1
c304:  + x12 + x111 <= 1
c305:  + x41 + x115 <= 1
c306:  + x8 + x22 <= 1
c307:  + x16 + x19 <= 1
c308:  + x3 + x26 <= 1
c309:  + x29 + x32 <= 1
c310:  + x8 + x31 <= 1
c311:  + x31 + x35 <= 1
c312:  + x13 + x36 <= 1
c313:  + x34 + x37 <= 1
c314:  + x43 + x45 + x47 <= 1
c315:  + x26 + x50 <= 1
c316:  + x2 + x51 <= 1
c317:  + x29 + x53 <= 1
c318:  + x11 + x56 <= 1
c319:  + x58 + x60 <= 1
c320:  + x54 + x63 <= 1
c321:  + x64 + x73 <= 1
c322:  + x19 + x65 <= 1
c323:  + x49 + x72 <= 1
c324:  + x35 + x75 <= 1
c325:  + x3 + x77 <= 1
c326:  + x6 + x81 <= 1
c327:  + x12 + x86 <= 1
c328:  + x47 + x87 <= 1
c329:  + x48 + x88 <= 1
c330:  + x19 + x92 <= 1
c331:  + x48 + x93 <= 1
c332:  + x81 + x96 <= 1
c333:  + x73 + x97 <= 1
c334:  + x28 + x102 <= 1
c335:  + x68 + x103 + x117 <= 1
c336:  + x99 + x104 + x123 <= 1
c337:  + x8 + x106 <= 1
c338:  + x12 + x107 <= 1
c339:  + x16 + x111 <= 1
c340:  + x43 + x115 <= 1
c341:  + x20 + x120 <= 1
c342:  + x21 + x121 <= 1
c343:  + x12 + x15 <= 1
c344:  + x4 + x24 <= 1
c345:  + x20 + x30 <= 1
c346:  + x30 + x32 <= 1
c347:  + x13 + x33 <= 1
c348:  + x16 + x36 <= 1
c349:  + x35 + x37 <= 1
c350:  + x35 + x39 <= 1
c351:  + x17 + x41 <= 1
c352:  + x26 + x46 <= 1
c353:  + x27 + x50 <= 1
c354:  + x3 + x51 <= 1
c355:  + x53 + x61 <= 1
c356:  + x10 + x55 <= 1
c357:  + x16 + x56 <= 1
c358:  + x58 + x62 <= 1
c359:  + x37 + x60 <= 1
c360:  + x60 + x63 <= 1
c361:  + x64 + x79 <= 1
c362:  + x41 + x65 <= 1
c363:  + x22 + x70 <= 1
c364:  + x49 + x71 <= 1
c365:  + x53 + x72 <= 1
c366:  + x52 + x75 <= 1
c367:  + x4 + x77 <= 1
c368:  + x8 + x82 <= 1
c369:  + x20 + x85 <= 1
c370:  + x46 + x86 <= 1
c371:  + x64 + x87 <= 1
c372:  + x73 + x88 <= 1
c373:  + x69 + x92 <= 1
c374:  + x89 + x93 <= 1
c375:  + x82 + x96 <= 1
c376:  + x77 + x97 <= 1
c377:  + x26 + x100 <= 1
c378:  + x2 + x101 <= 1
c379:  + x32 + x102 <= 1
c380:  + x21 + x106 <= 1
c381:  + x33 + x107 <= 1
c382:  + x74 + x109 + x123 <= 1
c383:  + x15 + x110 <= 1
c384:  + x41 + x111 <= 1
c385:  + x91 + x115 <= 1
c386:  + x71 + x120 <= 1
c387:  + x46 + x121 <= 1
c388:  + x9 + x10 <= 1
c389:  + x9 + x24 <= 1
c390:  + x29 + x36 <= 1
c391:  + x16 + x31 <= 1
c392:  + x39 + x45 <= 1
c393:  + x40 + x44 + x90 <= 1
c394:  + x27 + x42 <= 1
c395:  + x28 + x50 <= 1
c396:  + x4 + x51 <= 1
c397:  + x15 + x55 <= 1
c398:  + x51 + x56 <= 1
c399:  + x8 + x57 <= 1
c400:  + x58 + x65 <= 1
c401:  + x63 + x65 <= 1
c402:  + x24 + x70 <= 1
c403:  + x58 + x72 <= 1
c404:  + x53 + x75 <= 1
c405:  + x2 + x76 <= 1
c406:  + x4 + x78 <= 1
c407:  + x14 + x79 <= 1
c408:  + x10 + x80 <= 1
c409:  + x8 + x81 <= 1
c410:  + x34 + x84 <= 1
c411:  + x38 + x85 <= 1
c412:  + x63 + x86 <= 1
c413:  + x72 + x87 <= 1
c414:  + x85 + x88 <= 1
c415:  + x77 + x92 <= 1
c416:  + x93 + x94 <= 1
c417:  + x46 + x95 <= 1
c418:  + x87 + x96 <= 1
c419:  + x82 + x97 <= 1
c420:  + x27 + x100 <= 1
c421:  + x28 + x101 <= 1
c422:  + x37 + x102 <= 1
c423:  + x3 + x103 <= 1
c424:  + x9 + x104 <= 1
c425:  + x58 + x106 <= 1
c426:  + x92 + x107 <= 1
c427:  + x8 + x108 <= 1
c428:  + x37 + x110 <= 1
c429:  + x88 + x111 <= 1
c430:  + x12 + x112 <= 1
c431:  + x38 + x113 <= 1
c432:  + x14 + x114 <= 1
c433:  + x92 + x115 <= 1
c434:  + x16 + x116 <= 1
c435:  + x22 + x117 <= 1
c436:  + x96 + x120 <= 1
c437:  + x96 + x121 <= 1
c438:  + x47 + x122 <= 1
c439:  + x2 + x21 <= 1
c440:  + x29 + x41 <= 1
c441:  + x30 + x31 <= 1
c442:  + x32 + x40 <= 1
c443:  + x28 + x33 <= 1
c444:  + x21 + x36 <= 1
c445:  + x39 + x46 <= 1
c446:  + x42 + x65 <= 1
c447:  + x32 + x45 <= 1
c448:  + x29 + x49 <= 1
c449:  + x29 + x50 <= 1
c450:  + x32 + x52 <= 1
c451:  + x9 + x54 <= 1
c452:  + x20 + x55 <= 1
c453:  + x52 + x56 <= 1
c454:  + x12 + x57 <= 1
c455:  + x24 + x59 <= 1
c456:  + x39 + x60 <= 1
c457:  + x64 + x85 <= 1
c458:  + x49 + x69 <= 1
c459:  + x58 + x70 <= 1
c460:  + x51 + x71 <= 1
c461:  + x53 + x73 <= 1
c462:  + x54 + x75 <= 1
c463:  + x4 + x76 <= 1
c464:  + x63 + x78 <= 1
c465:  + x39 + x79 <= 1
c466:  + x15 + x80 <= 1
c467:  + x11 + x81 <= 1
c468:  + x39 + x84 <= 1
c469:  + x64 + x86 <= 1
c470:  + x42 + x91 <= 1
c471:  + x93 + x97 <= 1
c472:  + x47 + x95 <= 1
c473:  + x30 + x100 <= 1
c474:  + x31 + x101 <= 1
c475:  + x67 + x102 <= 1
c476:  + x53 + x103 <= 1
c477:  + x89 + x104 <= 1
c478:  + x91 + x106 <= 1
c479:  + x103 + x107 <= 1
c480:  + x33 + x108 <= 1
c481:  + x9 + x109 <= 1
c482:  + x65 + x110 <= 1
c483:  + x101 + x111 <= 1
c484:  + x37 + x112 <= 1
c485:  + x68 + x113 <= 1
c486:  + x39 + x114 <= 1
c487:  + x100 + x115 <= 1
c488:  + x41 + x116 <= 1
c489:  + x42 + x117 <= 1
c490:  + x119 + x123 + x124 <= 1
c491:  + x97 + x120 <= 1
c492:  + x102 + x121 <= 1
c493:  + x72 + x122 <= 1
c494:  + x4 + x26 <= 1
c495:  + x9 + x34 <= 1
c496:  + x35 + x36 <= 1
c497:  + x44 + x45 <= 1
c498:  + x30 + x50 <= 1
c499:  + x31 + x55 <= 1
c500:  + x55 + x56 <= 1
c501:  + x17 + x57 <= 1
c502:  + x55 + x59 <= 1
c503:  + x56 + x60 <= 1
c504:  + x11 + x61 <= 1
c505:  + x54 + x69 <= 1
c506:  + x61 + x70 <= 1
c507:  + x52 + x71 <= 1
c508:  + x59 + x73 <= 1
c509:  + x60 + x75 <= 1
c510:  + x36 + x76 <= 1
c511:  + x29 + x77 <= 1
c512:  + x78 + x81 <= 1
c513:  + x79 + x81 <= 1
c514:  + x32 + x80 <= 1
c515:  + x17 + x82 <= 1
c516:  + x8 + x83 <= 1
c517:  + x84 + x85 <= 1
c518:  + x76 + x86 <= 1
c519:  + x78 + x87 <= 1
c520:  + x88 + x95 <= 1
c521:  + x16 + x90 <= 1
c522:  + x93 + x98 <= 1
c523:  + x104 + x106 <= 1
c524:  + x10 + x105 <= 1
c525:  + x104 + x107 <= 1
c526:  + x38 + x108 <= 1
c527:  + x64 + x109 <= 1
c528:  + x86 + x110 <= 1
c529:  + x103 + x111 <= 1
c530:  + x64 + x112 <= 1
c531:  + x93 + x113 <= 1
c532:  + x49 + x114 <= 1
c533:  + x101 + x115 <= 1
c534:  + x68 + x116 <= 1
c535:  + x93 + x117 <= 1
c536:  + x18 + x118 <= 1
c537:  + x111 + x120 <= 1
c538:  + x111 + x121 <= 1
c539:  + x102 + x122 <= 1
c540:  + x3 + x18 <= 1
c541:  + x14 + x15 <= 1
c542:  + x3 + x21 <= 1
c543:  + x21 + x24 <= 1
c544:  + x26 + x31 <= 1
c545:  + x27 + x36 <= 1
c546:  + x30 + x33 <= 1
c547:  + x19 + x34 <= 1
c548:  + x35 + x38 <= 1
c549:  + x20 + x40 <= 1
c550:  + x28 + x43 <= 1
c551:  + x45 + x48 <= 1
c552:  + x27 + x47 <= 1
c553:  + x35 + x50 <= 1
c554:  + x46 + x51 <= 1
c555:  + x57 + x60 <= 1
c556:  + x14 + x62 <= 1
c557:  + x63 + x71 <= 1
c558:  + x53 + x67 <= 1
c559:  + x66 + x69 <= 1
c560:  + x69 + x70 <= 1
c561:  + x72 + x74 <= 1
c562:  + x63 + x73 <= 1
c563:  + x70 + x75 <= 1
c564:  + x37 + x77 <= 1
c565:  + x79 + x91 <= 1
c566:  + x56 + x80 <= 1
c567:  + x72 + x82 <= 1
c568:  + x63 + x83 <= 1
c569:  + x84 + x86 <= 1
c570:  + x84 + x87 <= 1
c571:  + x88 + x96 <= 1
c572:  + x69 + x89 <= 1
c573:  + x42 + x90 <= 1
c574:  + x79 + x92 <= 1
c575:  + x90 + x94 <= 1
c576:  + x72 + x95 <= 1
c577:  + x83 + x97 <= 1
c578:  + x78 + x98 <= 1
c579:  + x35 + x100 <= 1
c580:  + x32 + x105 <= 1
c581:  + x96 + x106 <= 1
c582:  + x105 + x107 <= 1
c583:  + x88 + x108 <= 1
c584:  + x84 + x109 <= 1
c585:  + x103 + x110 <= 1
c586:  + x97 + x112 <= 1
c587:  + x104 + x113 <= 1
c588:  + x64 + x114 <= 1
c589:  + x112 + x115 <= 1
c590:  + x106 + x116 <= 1
c591:  + x117 + x120 <= 1
c592:  + x43 + x118 <= 1
c593:  + x24 + x119 <= 1
c594:  + x114 + x121 <= 1
c595:  + x107 + x122 <= 1
c596:  + x2 + x6 <= 1
c597:  + x6 + x10 <= 1
c598:  + x13 + x15 <= 1
c599:  + x3 + x22 <= 1
c600:  + x20 + x23 <= 1
c601:  + x26 + x36 <= 1
c602:  + x33 + x47 <= 1
c603:  + x30 + x34 <= 1
c604:  + x34 + x40 <= 1
c605:  + x26 + x41 <= 1
c606:  + x41 + x44 <= 1
c607:  + x45 + x49 <= 1
c608:  + x40 + x50 <= 1
c609:  + x51 + x66 <= 1
c610:  + x37 + x52 <= 1
c611:  + x44 + x54 <= 1
c612:  + x57 + x65 <= 1
c613:  + x58 + x67 <= 1
c614:  + x59 + x60 <= 1
c615:  + x13 + x61 <= 1
c616:  + x22 + x62 <= 1
c617:  + x68 + x73 <= 1
c618:  + x71 + x76 <= 1
c619:  + x75 + x90 <= 1
c620:  + x42 + x77 <= 1
c621:  + x58 + x80 <= 1
c622:  + x16 + x81 <= 1
c623:  + x82 + x91 <= 1
c624:  + x85 + x89 <= 1
c625:  + x87 + x89 <= 1
c626:  + x92 + x94 <= 1
c627:  + x75 + x95 <= 1
c628:  + x83 + x98 <= 1
c629:  + x51 + x100 <= 1
c630:  + x53 + x101 <= 1
c631:  + x78 + x102 <= 1
c632:  + x104 + x108 <= 1
c633:  + x109 + x111 <= 1
c634:  + x108 + x110 <= 1
c635:  + x109 + x113 <= 1
c636:  + x113 + x115 <= 1
c637:  + x107 + x116 <= 1
c638:  + x117 + x121 <= 1
c639:  + x68 + x118 <= 1
c640:  + x74 + x119 <= 1
c641:  + x115 + x120 <= 1
c642:  + x112 + x122 <= 1
c643:  + x2 + x11 <= 1
c644:  + x7 + x10 <= 1
c645:  + x14 + x17 <= 1
c646:  + x15 + x19 <= 1
c647:  + x21 + x31 <= 1
c648:  + x23 + x24 <= 1
c649:  + x27 + x46 <= 1
c650:  + x28 + x48 <= 1
c651:  + x29 + x43 <= 1
c652:  + x33 + x55 <= 1
c653:  + x45 + x50 <= 1
c654:  + x47 + x62 <= 1
c655:  + x49 + x123 <= 1
c656:  + x52 + x61 <= 1
c657:  + x54 + x76 <= 1
c658:  + x56 + x101 <= 1
c659:  + x57 + x67 <= 1
c660:  + x59 + x65 <= 1
c661:  + x70 + x73 <= 1
c662:  + x71 + x81 <= 1
c663:  + x77 + x86 <= 1
c664:  + x79 + x100 <= 1
c665:  + x80 + x95 <= 1
c666:  + x82 + x102 <= 1
c667:  + x85 + x105 <= 1
c668:  + x87 + x97 <= 1
c669:  + x88 + x98 <= 1
c670:  + x91 + x94 <= 1
c671:  + x92 + x96 <= 1
c672:  + x93 + x118 <= 1
c673:  + x99 + x124 <= 1
c674:  + x103 + x106 <= 1
c675:  + x110 + x114 <= 1
c676:  + x116 + x121 <= 1
c677:  + x117 + x122 <= 1
c678:  + x119 + x120 <= 1



Binary
x0
x1
x2
x3
x4
x5
x6
x7
x8
x9
x10
x11
x12
x13
x14
x15
x16
x17
x18
x19
x20
x21
x22
x23
x24
x25
x26
x27
x28
x29
x30
x31
x32
x33
x34
x35
x36
x37
x38
x39
x40
x41
x42
x43
x44
x45
x46
x47
x48
x49
x50
x51
x52
x53
x54
x55
x56
x57
x58
x59
x60
x61
x62
x63
x64
x65
x66
x67
x68
x69
x70
x71
x72
x73
x74
x75
x76
x77
x78
x79
x80
x81
x82
x83
x84
x85
x86
x87
x88
x89
x90
x91
x92
x93
x94
x95
x96
x97
x98
x99
x100
x101
x102
x103
x104
x105
x106
x107
x108
x109
x110
x111
x112
x113
x114
x115
x116
x117
x118
x119
x120
x121
x122
x123
x124


End